1464
22 20 86 30 80 96 21 2 58 39 63 52 40 17 13 4 11 97 12 7 85 42 3 51 90 66 81 29 93 18 56 94 87 24 8 45 67 70 28 73 43 14 54 69 57 44 76 10 46 37 31 55 89 16 83 78 71 41 36 65 82 53 48 23 49 6 98 47 74 35 5 25 59 72 15 1 50 27 33 26 64 32 99 77 19 60 84 38 91 88 61 75 34 9 92 68 95 62 79 
